c ---- [ banner ] ------------------------------------------------------------
c
c Kissat SAT Solver
c 
c Copyright (c) 2021-2022 Armin Biere University of Freiburg
c Copyright (c) 2019-2021 Armin Biere Johannes Kepler University Linz
c 
c Version 3.0.0 97917ddf2b12adc6f63c7b2a5a403a1ee7d81836
c gcc (Ubuntu 9.4.0-1ubuntu1~20.04.1) 9.4.0 -W -Wall -O3 -DNDEBUG
c Fri Oct 7 14:23:58 PDT 2022 Linux jap-Lenovo-Yoga-C740-15IML 5.15.0-48-generic x86_64
c
c ---- [ parsing ] -----------------------------------------------------------
c
c opened and reading DIMACS file:
c
c   Pigeon7Holes5
c
c parsed 'p cnf 35 112' header
c closing input after reading 1119 bytes (1 KB)
c finished parsing after 0.00 seconds
c
c ---- [ solving ] -----------------------------------------------------------
c
c  seconds switched rate      trail  variables
c         MB reductions conflicts glue   remaining
c          level restarts redundant irredundant
c
c *  0.00  1 0 0 0  0 0   0   0 0% 0 112 35 97%
c {  0.00  1 0 0 0  0 0   0   0 0% 0 112 35 97%
c i  0.00  1 4 0 0  0 1  35  34 95% 2 112 34 94%
c i  0.00  1 5 0 0  4 2  81  79 95% 3 112 33 92%
c i  0.00  1 5 0 0  4 2  83  80 95% 2 112 32 89%
c i  0.00  1 5 0 0  4 1  98  94 95% 2 112 31 86%
c i  0.00  1 5 0 0  4 1 143 138 94% 2 112 25 69%
c i  0.00  1 5 0 0  4 1 145 139 95% 2 112 24 67%
c i  0.00  1 5 0 0  4 1 149 142 95% 2 112 23 64%
c i  0.00  1 5 0 0  4 1 153 145 95% 2 112 22 61%
c i  0.00  1 5 0 0  4 1 154 145 95% 2 112 21 58%
c i  0.00  1 5 0 0  4 1 157 147 95% 2 112 15 42%
c }  0.00  1 5 0 0  4 1 159 147 95% 2 112  0 0%
c 0  0.00  1 5 0 0  4 1 159 147 95% 2 112  0 0%
c
c ---- [ result ] ------------------------------------------------------------
c
s UNSATISFIABLE
c
c ---- [ profiling ] ---------------------------------------------------------
c
c           0.00   86.79 %  search
c           0.00   81.50 %  focused
c           0.00    5.46 %  parse
c           0.00    0.00 %  simplify
c =============================================
c           0.00  100.00 %  total
c
c ---- [ statistics ] --------------------------------------------------------
c
c conflicts:                              159            59262.02 per second
c decisions:                              221                1.39 per conflict
c propagations:                          2211           824078    per second
c restarts:                                 4               39.75 interval
c
c ---- [ resources ] ---------------------------------------------------------
c
c maximum-resident-set-size:          1056768 bytes          1 MB
c process-time:                                              0.00 seconds
c
c ---- [ shutting down ] -----------------------------------------------------
c
c exit 20
